1355.62,41.77,50.06
1393.05,40.65,48.72
1507.18,37.57,45.03
1382.52,40.96,49.09
1439.96,39.33,47.13
1448.47,39.1,46.85
1427.45,39.67,47.54
1398.95,40.48,48.51
1218.17,46.49,55.71
1281.1,44.2,52.98
1474.91,38.39,46.01
1436.64,39.42,47.24
1438.57,39.36,47.18
1238.2,45.73,54.81
1362.15,41.57,49.82
1308.56,43.27,51.86
1291.19,43.86,52.56
1388.08,40.8,48.89
1340.27,42.25,50.64
1338.6,42.3,50.7
